Data path: /scratch/opt/lxu/CFLG/benchmarks/random_B
Instance: r_40_0.1_84.txt
Result path: /scratch/opt/lxu/CFLG/results/random_B
Solver: Gurobi
Time limit: 7200
Formulation: EFP
Cover: Large
julia --project=. src/main.jl /scratch/opt/lxu/CFLG/benchmarks/random_B r_40_0.1_84.txt /scratch/opt/lxu/CFLG/results/random_B Gurobi 7200 EFP Large
The latest version of Julia in the `release` channel is 1.11.5+0.x64.linux.gnu. You currently have `1.11.4+0.x64.linux.gnu` installed. Run:

  juliaup update

in your terminal shell to install Julia 1.11.5+0.x64.linux.gnu and update the `release` channel to that version.
/scratch/opt/lxu/CFLG/benchmarks/random_B Gurobi 7200.0 /scratch/opt/lxu/CFLG/results/random_B r_40_0.1_84.txt EFP Large
/scratch/opt/lxu/CFLG/benchmarks/random_B/r_40_0.1_84.txt

 read graph
data loaded

problem_graph/original graph: node: 40/40 edge: 84/84 dlt: 1.2137849027573164 break_avg_len: 0.6068924513786582 break_max_len: 0.9739273588152333elapsed CPU time: 0.030682 seconds
Set parameter TokenServer to value "solice01.zib.de"
Set parameter Threads to value 1
Set parameter OutputFlag to value 1
Set parameter MIPGap to value 0.0001
Set parameter MIPGapAbs to value 0.999998
Set parameter TimeLimit to value 7199.969318

 more cuts:falsefalse
3 0
formulation:EFP0 84 40

 model loaded

Gurobi Optimizer version 12.0.1 build v12.0.1rc0 (linux64 - "Debian GNU/Linux 12 (bookworm)")

CPU model: Intel(R) Xeon(R) Gold 5122 CPU @ 3.60GHz, instruction set [SSE2|AVX|AVX2|AVX512]
Thread count: 8 physical cores, 16 logical processors, using up to 1 threads

Non-default parameters:
TimeLimit  7199.969318
MIPGapAbs  0.999998
Threads  1

Optimize a model with 6265 rows, 3107 columns and 18505 nonzeros
Model fingerprint: 0x9d011a7f
Variable types: 208 continuous, 2899 integer (2899 binary)
Coefficient statistics:
  Matrix range     [1e-06, 2e+00]
  Objective range  [1e+00, 1e+00]
  Bounds range     [3e-01, 1e+00]
  RHS range        [3e-01, 8e+00]
Found heuristic solution: objective 27.0000000
Presolve removed 1071 rows and 161 columns
Presolve time: 0.06s
Presolved: 5194 rows, 2946 columns, 17033 nonzeros
Variable types: 121 continuous, 2825 integer (2825 binary)

Root relaxation: objective 1.117804e+00, 1978 iterations, 0.05 seconds (0.08 work units)

    Nodes    |    Current Node    |     Objective Bounds      |     Work
 Expl Unexpl |  Obj  Depth IntInf | Incumbent    BestBd   Gap | It/Node Time

     0     0    1.11780    0  161   27.00000    1.11780  95.9%     -    0s
H    0     0                      17.0000000    1.11780  93.4%     -    0s
H    0     0                      12.0000000    1.11780  90.7%     -    0s
H    0     0                      11.0000000    1.11780  89.8%     -    0s
     0     0    2.57259    0  141   11.00000    2.57259  76.6%     -    0s
H    0     0                      10.0000000    2.59889  74.0%     -    0s
H    0     0                       9.0000000    2.59889  71.1%     -    0s
     0     0    2.60779    0  139    9.00000    2.60779  71.0%     -    0s
     0     0    2.60893    0  140    9.00000    2.60893  71.0%     -    0s
     0     0    2.91160    0  150    9.00000    2.91160  67.6%     -    0s
     0     0    2.93438    0  175    9.00000    2.93438  67.4%     -    0s
     0     0    2.94571    0  184    9.00000    2.94571  67.3%     -    0s
     0     0    2.94614    0  185    9.00000    2.94614  67.3%     -    0s
     0     0    3.28789    0  160    9.00000    3.28789  63.5%     -    0s
H    0     0                       8.0000000    3.28789  58.9%     -    0s
H    0     0                       7.0000000    3.28789  53.0%     -    0s
     0     0    3.35524    0  160    7.00000    3.35524  52.1%     -    0s
     0     0    3.35524    0  152    7.00000    3.35524  52.1%     -    0s
     0     0    3.44444    0  179    7.00000    3.44444  50.8%     -    0s
     0     0    3.44444    0  152    7.00000    3.44444  50.8%     -    0s
     0     0    3.44444    0  155    7.00000    3.44444  50.8%     -    1s
     0     0    3.57143    0  155    7.00000    3.57143  49.0%     -    1s
     0     0    3.57143    0  109    7.00000    3.57143  49.0%     -    1s
     0     0    3.57143    0  142    7.00000    3.57143  49.0%     -    1s
     0     0    3.57143    0  161    7.00000    3.57143  49.0%     -    1s
     0     0    3.57143    0  172    7.00000    3.57143  49.0%     -    1s
     0     0    3.57143    0  176    7.00000    3.57143  49.0%     -    1s
H    0     0                       6.0000000    3.57143  40.5%     -    2s
     0     0    3.57143    0  210    6.00000    3.57143  40.5%     -    2s
     0     0    3.57143    0  220    6.00000    3.57143  40.5%     -    2s
     0     0    3.57143    0  194    6.00000    3.57143  40.5%     -    2s
     0     2    3.60108    0  155    6.00000    3.60108  40.0%     -    2s
   372   149    4.87074    4  138    6.00000    4.32847  27.9%   103    5s
   871   364    5.00000    9  205    6.00000    4.73008  21.2%  81.0   10s
   887   375    5.00000   13  286    6.00000    4.73008  21.2%  79.5   15s
   968   378    5.00000   13   63    6.00000    4.73008  21.2%   125   20s
  1170   339    5.00000   21  183    6.00000    4.73008  21.2%   138   25s
  1384   260    5.00000   19  117    6.00000    5.00000  16.7%   145   30s
  1654   172    5.00000   38   21    6.00000    5.00000  16.7%   147   35s
  2068    31    5.00000   28  156    6.00000    5.00000  16.7%   138   40s
  2270    12    5.00000   22  176    6.00000    5.00000  16.7%   147   45s
  2614    18     cutoff   31         6.00000    5.00000  16.7%   146   50s
  2810    20    5.00000   27   67    6.00000    5.00000  16.7%   152   56s
  3027    11    5.00000   28  141    6.00000    5.00000  16.7%   154   60s

Cutting planes:
  Learned: 5
  Gomory: 6
  Cover: 34
  Implied bound: 8
  Clique: 1
  MIR: 24
  StrongCG: 4
  Flow cover: 25
  GUB cover: 42
  Zero half: 21
  RLT: 12
  Relax-and-lift: 4
  BQP: 1

Explored 3172 nodes (525088 simplex iterations) in 63.28 seconds (74.96 work units)
Thread count was 1 (of 16 available processors)

Solution count 10: 6 6 7 ... 12

Optimal solution found (tolerance 1.00e-04)
Best objective 6.000000000000e+00, best bound 6.000000000000e+00, gap 0.0000%

User-callback calls 21562, time in user-callback 0.03 sec

 sepatime0
6.0Stat(MathOptInterface.OPTIMAL, 6.0, 6.0, 0.0, 0.0, 0.030682, 63.28291583061218, 3172, Main.CFLG.EFP, "", #undef)
